db/inputs/1998253113601339118705149547061880.smt2
(set-logic QF_FP)
(declare-const x0 (_ FloatingPoint 11 53))
(declare-const x1 (_ FloatingPoint 11 53))
(declare-const x2 (_ FloatingPoint 11 53))
(declare-const x3 (_ FloatingPoint 11 53))
(declare-const x4 (_ FloatingPoint 11 53))
(declare-const x5 (_ FloatingPoint 11 53))
(declare-const x6 (_ FloatingPoint 11 53))
(declare-const x7 (_ FloatingPoint 11 53))
(declare-const x8 (_ FloatingPoint 11 53))
(declare-const x9 (_ FloatingPoint 11 53))
(assert (fp.eq (fp.div RNE (fp.mul RNE x7 x9) (fp.div RNE x7 x5)) (fp.sub RNE (fp.neg x2) (fp.add RNE x5 x4))))
(assert (fp.lt (fp.sub RNE (fp.add RNE x6 x7) (fp.mul RNE x7 x5)) (fp.add RNE (fp.div RNE x3 x2) (fp.mul RNE x2 x7))))
(assert (fp.leq (fp.neg (fp.neg x4)) (fp.mul RNE (fp.neg x8) (fp.add RNE x4 x8))))
(assert (fp.eq (fp.mul RNE (fp.div RNE x5 x4) (fp.add RNE x8 x4)) (fp.neg (fp.neg x0))))
(assert (fp.gt (fp.add RNE (fp.div RNE x4 x6) (fp.mul RNE x3 x0)) (fp.div RNE (fp.sub RNE x9 x8) (fp.add RNE x1 x5))))
(assert (fp.leq (fp.mul RNE (fp.neg x3) (fp.sub RNE x9 x9)) (fp.div RNE (fp.mul RNE x7 x0) (fp.add RNE x8 x8))))
(assert (fp.geq (fp.mul RNE (fp.neg x5) (fp.sub RNE x3 x4)) (fp.add RNE (fp.mul RNE x4 x5) (fp.neg x7))))
(assert (fp.geq (fp.sub RNE (fp.add RNE x0 x2) (fp.add RNE x1 x2)) (fp.sub RNE (fp.add RNE x5 x2) (fp.mul RNE x5 x4))))
(assert (fp.eq (fp.mul RNE (fp.mul RNE x0 x2) (fp.add RNE x7 x6)) (fp.neg (fp.add RNE x8 x2))))
(assert (fp.leq (fp.sub RNE (fp.div RNE x3 x3) (fp.neg x2)) (fp.mul RNE (fp.neg x3) (fp.add RNE x0 x4))))
(assert (fp.geq (fp.div RNE (fp.sub RNE x6 x2) (fp.mul RNE x5 x4)) (fp.div RNE (fp.neg x4) (fp.sub RNE x6 x7))))
(check-sat)
