db/data/1998253113601339118705149547061880.z3.out
-------------------
2500.121410943
